(set-logic HORN)
(declare-fun state (Int Int (Array Int Int) Int Int Bool Bool Int Int Int) Bool)
(assert (forall ((|J_2| Int) (|.y.8| Int) (|K_1| (Array Int Int)) (|G_3| Int) (|C_3| Int) (|.loc.9| Bool) (|.loc.10| Bool) (|H_3| Int) (|L_1| Int) (|I_3| Int) (|.loc.16| Bool) (|.y.15| Int) (|.y.11| Int) (|.y.14| Int) (|.y.13| (Array Int Int)) (|.loc.17| Bool) (|.y.12| Int) (|.xtv.1| Int) (|.xtv.2| Int) (|.xtv.3| Int)) (=> (and (not .loc.9) (not .loc.10)) (state |J_2| |.y.8| |K_1| |G_3| |C_3| |.loc.9| |.loc.10| |H_3| |L_1| |I_3|))))
(assert (forall ((|J_2| Int) (|.y.8| Int) (|K_1| (Array Int Int)) (|G_3| Int) (|C_3| Int) (|.loc.9| Bool) (|.loc.10| Bool) (|H_3| Int) (|L_1| Int) (|I_3| Int) (|.loc.16| Bool) (|.y.15| Int) (|.y.11| Int) (|.y.14| Int) (|.y.13| (Array Int Int)) (|.loc.17| Bool) (|.y.12| Int) (|.xtv.1| Int) (|.xtv.2| Int) (|.xtv.3| Int)) (=> (and (state |J_2| |.y.8| |K_1| |G_3| |C_3| |.loc.9| |.loc.10| |H_3| |L_1| |I_3|) (let ((.def_20 (not .loc.9))) (let ((.def_21 (not .loc.10))) (let ((.def_25 (<= (select K_1 L_1) (select K_1 H_3)))) (let ((.def_27 (<= J_2 0))) (let ((.def_29 (not (<= H_3 0)))) (let ((.def_59 (and (or .def_27 .def_29) (and (or .def_27 (not (<= L_1 0))) (and (not (<= C_3 G_3)) (and (not .def_27) (and (not (<= C_3 I_3)) (and (not (<= I_3 G_3)) (and (= (+ J_2 (+ (* (- 1) L_1) I_3)) 0) (= (+ J_2 (+ G_3 (* (- 1) H_3))) 0)))))))))) (let ((.def_71 (not .loc.16))) (let ((.def_75 (<= G_3 J_2))) (let ((.def_79 (= K_1 .y.13))) (let ((.def_108 (not .loc.17))) (let ((.def_117 (<= .y.8 0))) (or (or (and (or (or (and (and .def_20 (and .loc.10 (and .def_25 .def_59))) .loc.16) (and (= G_3 .y.15) (and (and (= .y.8 .y.11) (and (and (= .y.14 0) (and .def_21 (and .loc.9 .def_71))) .def_75)) .def_79))) (and (= C_3 .y.15) (and (= J_2 .y.11) (and (= (+ G_3 (* (- 1) .y.14)) (- 1)) (and .def_79 (and .def_71 (and .def_20 (and .loc.10 (and .def_59 (not .def_25)))))))))) .loc.17) (and (not (<= .y.12 0)) (and (not (<= .y.14 0)) (and (= .y.11 0) (and (and .def_21 (and .def_20 .loc.16)) .def_108))))) (and (= G_3 .y.14) (and (= .y.8 .y.12) (and (not .def_75) (and (or .def_29 .def_117) (and (= (+ J_2 (+ .y.8 (* (- 1) H_3))) 0) (and (not .def_117) (and (= .y.13 (store K_1 H_3 J_2)) (and (= (+ J_2 (* (- 1) .y.11)) (- 1)) (and .def_108 (and .def_21 (and .loc.9 .loc.16)))))))))))))))))))))))) (state |.y.11| |.y.12| |.y.13| |.y.14| |.y.15| |.loc.16| |.loc.17| |.xtv.1| |.xtv.2| |.xtv.3|))))
(assert (forall ((|J_2| Int) (|.y.8| Int) (|K_1| (Array Int Int)) (|G_3| Int) (|C_3| Int) (|.loc.9| Bool) (|.loc.10| Bool) (|H_3| Int) (|L_1| Int) (|I_3| Int) (|.loc.16| Bool) (|.y.15| Int) (|.y.11| Int) (|.y.14| Int) (|.y.13| (Array Int Int)) (|.loc.17| Bool) (|.y.12| Int) (|.xtv.1| Int) (|.xtv.2| Int) (|.xtv.3| Int)) (=> (state |J_2| |.y.8| |K_1| |G_3| |C_3| |.loc.9| |.loc.10| |H_3| |L_1| |I_3|) (not (and .loc.9 .loc.10)))))
(check-sat)
